
  22   10
  10   10   10   10   10   10   10   10   10   10

   0   0   0   0   0   0   0   0   0   0   0   7 2 3 4 5 6 7 21 
   9   0   0   0   0   0   0  10   0   0   0   5 20 19 12 9 8 
  10   0  10   0   0   0   0   0   0   0   0   5 18 17 16 12 9 
   8   0   0   0   0   0   0   0  10   0   0   4 15 10 9 8 
   3   0   0   0   0   0  10   0   0   0   0   3 13 10 8 
  10   0   0   0   0   0   0   0  10   0   0   3 14 11 8 
   2   0   0   0   0   0   0  10   0   0   0   2 11 10 
   7   0   0  10   0   0   0   0   0   0   0   1 22
   2   0   0   0   0   0  10   0   0   0   0   1 22
   2   0   0   0   0  10   0   0   0   0   0   1 22
   7   0   0   0   0   0   0   0   0  10   0   1 22
   9   0   0   0  10   0   0   0   0   0   0   1 22
   5   0   0   0  10   0   0   0   0   0   0   1 22
   7   0   0   0   0   0   0  10   0   0   0   1 22
   8   0   0   0   0   0   0   0  10   0   0   1 22
   5   0   0   0   0   0   0   0   0   0  10   1 22
   2   0   0   0   0  10   0   0   0   0   0   1 22
   7   0   0   0   0   0   0   0   0   0  10   1 22
   9   0   0   0   0   0   0   0  10   0   0   1 22
   2   0   0   0   0  10   0   0   0   0   0   1 22
   8   0   0   0  10   0   0   0   0   0   0   1 22
   0   0   0   0   0   0   0   0   0   0   0   0 
